33D32945 STP File, STP Format Version 1.0

SECTION Comments
Name "inst10x3_02"
Creator "Kurt Anstreicher & Marcia Fampa"
Problem "Euclidean Steiner Tree Problem"
Remark "Converted automatically"
END

SECTION Graph
Nodes 10
END

SECTION Coordinates
DDD 1 4.51424826762477 0.43895325347144 0.27185122996675 
DDD 2 3.12685048080145 0.12862574672998 3.83967288494302 
DDD 3 6.83115967804600 0.92842461740920 0.35338323969156 
DDD 4 6.12395481373022 6.08540361223992 0.15759817919751 
DDD 5 0.16354933549997 1.90074589079726 5.86918471884673 
DDD 6 0.57581089878289 3.67568038826344 6.31451164744443 
DDD 7 7.17634421465697 6.92669394717788 0.84079060750445 
DDD 8 4.54355149755552 4.41828296906342 3.53250455000691 
DDD 9 1.53606362523492 6.75644649633412 6.99213327741262 
DDD 10 7.27509129217931 4.78384380956657 5.54841986341677 
END

EOF
